p cnf 32 95
-1 2 -3 0
1 -2 -3 0
-1 -2 3 0
1 2 3 0
4 -3 0
4 -3 0
3 -4 0
-7 -5 0
-7 -6 0
5 6 7 0
8 9 -10 0
-8 -9 -10 0
8 -9 10 0
-8 9 10 0
11 7 0
11 10 0
-7 -10 -11 0
12 4 0
12 -11 0
-4 11 -12 0
1 13 -14 0
-1 -13 -14 0
1 -13 14 0
-1 13 14 0
3 14 -15 0
-3 -14 -15 0
3 -14 15 0
-3 14 15 0
-16 -9 0
-16 10 0
9 -10 16 0
17 -15 0
17 -16 0
15 16 -17 0
18 -19 0
-18 -19 0
-21 -2 0
-21 20 0
2 -20 21 0
-19 -21 -22 0
19 21 -22 0
-19 21 22 0
19 -21 22 0
-23 -17 0
-23 -22 0
17 22 23 0
24 2 0
24 -14 0
-2 14 -24 0
-25 23 0
-25 -24 0
-23 24 25 0
12 -25 -26 0
-12 25 -26 0
12 25 26 0
-12 -25 26 0
-13 -1 -27 0
13 1 -27 0
-13 1 27 0
13 -1 27 0
28 27 0
28 -10 0
-27 10 -28 0
29 -26 0
29 -28 0
26 28 -29 0
31 -13 0
31 -30 0
13 30 -31 0
32 29 0
32 -31 0
-29 31 -32 0
-31 26 -14 23 0
32 5 24 25 -7 0
23 -28 19 -27 -32 0
29 -21 23 0
-8 -9 -17 0
10 14 -30 -8 -32 -11 0
-3 13 1 -9 27 0
3 -22 -31 0
-28 25 8 0
16 -13 22 -8 0
-19 -21 -15 -25 -26 -6 0
29 28 25 17 0
-7 -23 -8 -11 0
20 5 -8 -21 0
-28 11 30 0
-6 -19 -15 16 4 11 0
-10 7 0
-15 -6 17 -5 13 -2 0
-9 -11 20 16 0
8 19 0
-1 27 0
-24 -26 0
32 0
